p cnf 81 273
-7 1 0
-7 2 0
7 -1 -2 0
-8 1 0
-8 3 0
8 -1 -3 0
-9 1 0
-9 4 0
9 -1 -4 0
-10 1 0
-10 5 0
10 -1 -5 0
-11 1 0
-11 6 0
11 -1 -6 0
-12 2 0
-12 3 0
12 -2 -3 0
-13 2 0
-13 4 0
13 -2 -4 0
-14 2 0
-14 5 0
14 -2 -5 0
-15 2 0
-15 6 0
15 -2 -6 0
-16 3 0
-16 4 0
16 -3 -4 0
-17 3 0
-17 5 0
17 -3 -5 0
-18 3 0
-18 6 0
18 -3 -6 0
-19 4 0
-19 5 0
19 -4 -5 0
-20 4 0
-20 6 0
20 -4 -6 0
-21 5 0
-21 6 0
21 -5 -6 0
22 0
2 -22 23 0
-2 -22 -23 0
2 -23 22 0
-2 22 23 0
6 -23 24 0
-6 -23 -24 0
6 -24 23 0
-6 23 24 0
13 -24 25 0
-13 -24 -25 0
13 -25 24 0
-13 24 25 0
14 -25 26 0
-14 -25 -26 0
14 -26 25 0
-14 25 26 0
15 -26 27 0
-15 -26 -27 0
15 -27 26 0
-15 26 27 0
16 -27 28 0
-16 -27 -28 0
16 -28 27 0
-16 27 28 0
17 -28 29 0
-17 -28 -29 0
17 -29 28 0
-17 28 29 0
18 -29 30 0
-18 -29 -30 0
18 -30 29 0
-18 29 30 0
-30 0
31 0
2 -31 32 0
-2 -31 -32 0
2 -32 31 0
-2 31 32 0
4 -32 33 0
-4 -32 -33 0
4 -33 32 0
-4 32 33 0
5 -33 34 0
-5 -33 -34 0
5 -34 33 0
-5 33 34 0
6 -34 35 0
-6 -34 -35 0
6 -35 34 0
-6 34 35 0
7 -35 36 0
-7 -35 -36 0
7 -36 35 0
-7 35 36 0
9 -36 37 0
-9 -36 -37 0
9 -37 36 0
-9 36 37 0
10 -37 38 0
-10 -37 -38 0
10 -38 37 0
-10 37 38 0
11 -38 39 0
-11 -38 -39 0
11 -39 38 0
-11 38 39 0
12 -39 40 0
-12 -39 -40 0
12 -40 39 0
-12 39 40 0
16 -40 41 0
-16 -40 -41 0
16 -41 40 0
-16 40 41 0
17 -41 42 0
-17 -41 -42 0
17 -42 41 0
-17 41 42 0
18 -42 43 0
-18 -42 -43 0
18 -43 42 0
-18 42 43 0
21 -43 44 0
-21 -43 -44 0
21 -44 43 0
-21 43 44 0
-44 0
45 0
1 -45 46 0
-1 -45 -46 0
1 -46 45 0
-1 45 46 0
3 -46 47 0
-3 -46 -47 0
3 -47 46 0
-3 46 47 0
5 -47 48 0
-5 -47 -48 0
5 -48 47 0
-5 47 48 0
7 -48 49 0
-7 -48 -49 0
7 -49 48 0
-7 48 49 0
9 -49 50 0
-9 -49 -50 0
9 -50 49 0
-9 49 50 0
10 -50 51 0
-10 -50 -51 0
10 -51 50 0
-10 50 51 0
12 -51 52 0
-12 -51 -52 0
12 -52 51 0
-12 51 52 0
13 -52 53 0
-13 -52 -53 0
13 -53 52 0
-13 52 53 0
17 -53 54 0
-17 -53 -54 0
17 -54 53 0
-17 53 54 0
-54 0
55 0
2 -55 56 0
-2 -55 -56 0
2 -56 55 0
-2 55 56 0
3 -56 57 0
-3 -56 -57 0
3 -57 56 0
-3 56 57 0
4 -57 58 0
-4 -57 -58 0
4 -58 57 0
-4 57 58 0
10 -58 59 0
-10 -58 -59 0
10 -59 58 0
-10 58 59 0
14 -59 60 0
-14 -59 -60 0
14 -60 59 0
-14 59 60 0
17 -60 61 0
-17 -60 -61 0
17 -61 60 0
-17 60 61 0
19 -61 62 0
-19 -61 -62 0
19 -62 61 0
-19 61 62 0
20 -62 63 0
-20 -62 -63 0
20 -63 62 0
-20 62 63 0
-63 0
64 0
1 -64 65 0
-1 -64 -65 0
1 -65 64 0
-1 64 65 0
2 -65 66 0
-2 -65 -66 0
2 -66 65 0
-2 65 66 0
3 -66 67 0
-3 -66 -67 0
3 -67 66 0
-3 66 67 0
14 -67 68 0
-14 -67 -68 0
14 -68 67 0
-14 67 68 0
15 -68 69 0
-15 -68 -69 0
15 -69 68 0
-15 68 69 0
19 -69 70 0
-19 -69 -70 0
19 -70 69 0
-19 69 70 0
-70 0
-71 0
2 -71 72 0
-2 -71 -72 0
2 -72 71 0
-2 71 72 0
3 -72 73 0
-3 -72 -73 0
3 -73 72 0
-3 72 73 0
6 -73 74 0
-6 -73 -74 0
6 -74 73 0
-6 73 74 0
7 -74 75 0
-7 -74 -75 0
7 -75 74 0
-7 74 75 0
8 -75 76 0
-8 -75 -76 0
8 -76 75 0
-8 75 76 0
10 -76 77 0
-10 -76 -77 0
10 -77 76 0
-10 76 77 0
11 -77 78 0
-11 -77 -78 0
11 -78 77 0
-11 77 78 0
17 -78 79 0
-17 -78 -79 0
17 -79 78 0
-17 78 79 0
18 -79 80 0
-18 -79 -80 0
18 -80 79 0
-18 79 80 0
19 -80 81 0
-19 -80 -81 0
19 -81 80 0
-19 80 81 0
-81 0
